50
6633

480 551
381 225
603 423
64 39
358 333
827 385
108 335
7 401
306 903
590 195
481 550
809 14
809 942
179 718
771 444
844 242
982 136
386 575
748 199
13 629
604 375
170 738
808 724
763 513
178 904
429 652
208 205
993 478
581 208
433 991
186 26
640 531
717 986
376 526
283 980
280 977
725 669
34 988
815 263
996 195
274 594
973 769
195 49
153 696
502 59
372 939
731 892
76 448
831 671
251 868
